; benchmark generated from python API
(set-info :status unknown)
(declare-fun x_month () (_ BitVec 32))
(declare-fun x_year () (_ BitVec 32))
(declare-fun x_day () (_ BitVec 32))
(declare-fun y_month () (_ BitVec 32))
(declare-fun y_year () (_ BitVec 32))
(declare-fun y_day () (_ BitVec 32))
(assert
 (let (($x439 (= (_ bv6 32) x_month)))
 (let ((?x1675 (ite (or (= (_ bv4 32) x_month) $x439 (= (_ bv9 32) x_month) (= (_ bv11 32) x_month)) (_ bv30 32) (_ bv31 32))))
 (let (($x3145 (and (= (_ bv0 32) (bvsmod x_year (_ bv4 32))) (and (distinct (_ bv0 32) (bvsmod x_year (_ bv100 32))) true))))
 (let ((?x6537 (ite (= (_ bv2 32) x_month) (ite (or $x3145 (= (_ bv0 32) (bvsmod x_year (_ bv400 32)))) (_ bv29 32) (_ bv28 32)) ?x1675)))
 (let (($x2568 (bvsle x_day ?x6537)))
 (let (($x6054 (bvsle (_ bv1 32) x_day)))
 (let (($x2285 (bvsle (_ bv1 32) x_month)))
 (let (($x5253 (bvsge (_ bv12 32) x_month)))
 (let (($x25827 (bvsle (_ bv1901 32) x_year)))
 (or (and (= (_ bv1900 32) x_year) (bvsle (_ bv3 32) x_month) $x5253 $x6054 $x2568) (and $x25827 (bvsge (_ bv2099 32) x_year) $x2285 $x5253 $x6054 $x2568) (and (= (_ bv2100 32) x_year) $x2285 (bvsge (_ bv2 32) x_month) $x6054 $x2568))))))))))))
(assert
 (let (($x4878 (= (_ bv6 32) y_month)))
 (let ((?x3758 (ite (or (= (_ bv4 32) y_month) $x4878 (= (_ bv9 32) y_month) (= (_ bv11 32) y_month)) (_ bv30 32) (_ bv31 32))))
 (let (($x1021 (and (= (_ bv0 32) (bvsmod y_year (_ bv4 32))) (and (distinct (_ bv0 32) (bvsmod y_year (_ bv100 32))) true))))
 (let ((?x3348 (ite (= (_ bv2 32) y_month) (ite (or $x1021 (= (_ bv0 32) (bvsmod y_year (_ bv400 32)))) (_ bv29 32) (_ bv28 32)) ?x3758)))
 (let (($x2432 (bvsle y_day ?x3348)))
 (let (($x2577 (bvsle (_ bv1 32) y_day)))
 (let (($x2624 (bvsle (_ bv1 32) y_month)))
 (let (($x5974 (bvsge (_ bv12 32) y_month)))
 (let (($x23903 (bvsle (_ bv1901 32) y_year)))
 (or (and (= (_ bv1900 32) y_year) (bvsle (_ bv3 32) y_month) $x5974 $x2577 $x2432) (and $x23903 (bvsge (_ bv2099 32) y_year) $x2624 $x5974 $x2577 $x2432) (and (= (_ bv2100 32) y_year) $x2624 (bvsge (_ bv2 32) y_month) $x2577 $x2432))))))))))))
(assert
 (let (($x1916 (or (bvslt (_ bv6 32) x_month) (and (= (_ bv6 32) x_month) (bvsle (_ bv1 32) x_day)))))
 (or (bvslt (_ bv2023 32) x_year) (and (= (_ bv2023 32) x_year) $x1916))))
(assert
 (let ((?x2685 (bvadd x_month (bvadd (bvmul (_ bv0 32) (_ bv12 32)) (_ bv1 32)))))
 (let ((?x4835 (bvsub (ite (bvuge ?x2685 (_ bv2147483648 32)) (bvsub ?x2685 (_ bv0 32)) ?x2685) (_ bv1 32))))
 (let ((?x3485 (bvsmod ?x4835 (_ bv12 32))))
 (let ((?x3990 (bvadd ?x3485 (_ bv1 32))))
 (let (($x5591 (= (_ bv11 32) ?x3990)))
 (let (($x2912 (= (_ bv9 32) ?x3990)))
 (let (($x2423 (= (_ bv6 32) ?x3990)))
 (let (($x6801 (= (_ bv4 32) ?x3990)))
 (let ((?x3030 (bvsdiv ?x4835 (_ bv12 32))))
 (let ((?x4510 (ite (and (bvuge ?x4835 (_ bv2147483648 32)) (and (distinct (_ bv0 32) ?x3485) true)) (bvsub ?x3030 (_ bv1 32)) ?x3030)))
 (let ((?x1298 (bvadd x_year ?x4510)))
 (let (($x6610 (or (and (= (_ bv0 32) (bvsmod ?x1298 (_ bv4 32))) (and (distinct (_ bv0 32) (bvsmod ?x1298 (_ bv100 32))) true)) (= (_ bv0 32) (bvsmod ?x1298 (_ bv400 32))))))
 (let (($x2461 (= (_ bv2 32) ?x3990)))
 (let ((?x2980 (ite $x2461 (ite $x6610 (_ bv29 32) (_ bv28 32)) (ite (or $x6801 $x2423 $x2912 $x5591) (_ bv30 32) (_ bv31 32)))))
 (let ((?x2621 (ite (bvsgt (_ bv1 32) x_day) (_ bv1 32) (ite (bvsgt x_day ?x2980) ?x2980 x_day))))
 (let ((?x1856 (ite (bvsgt (_ bv1 32) ?x2621) (_ bv1 32) (ite (bvsgt ?x2621 ?x2980) ?x2980 ?x2621))))
 (let ((?x5401 (ite $x2461 (ite $x6610 (_ bv31 32) (_ bv31 32)) (ite (= (_ bv1 32) ?x3990) (ite $x6610 (_ bv0 32) (_ bv0 32)) (_ bv0 32)))))
 (let ((?x3425 (ite $x6801 (ite $x6610 (_ bv91 32) (_ bv90 32)) (ite (= (_ bv3 32) ?x3990) (ite $x6610 (_ bv60 32) (_ bv59 32)) ?x5401))))
 (let ((?x2930 (ite $x2423 (ite $x6610 (_ bv152 32) (_ bv151 32)) (ite (= (_ bv5 32) ?x3990) (ite $x6610 (_ bv121 32) (_ bv120 32)) ?x3425))))
 (let ((?x65417 (ite (= (_ bv8 32) ?x3990) (ite $x6610 (_ bv213 32) (_ bv212 32)) (ite (= (_ bv7 32) ?x3990) (ite $x6610 (_ bv182 32) (_ bv181 32)) ?x2930))))
 (let ((?x1038 (ite (= (_ bv10 32) ?x3990) (ite $x6610 (_ bv274 32) (_ bv273 32)) (ite $x2912 (ite $x6610 (_ bv244 32) (_ bv243 32)) ?x65417))))
 (let ((?x453 (ite (= (_ bv12 32) ?x3990) (ite $x6610 (_ bv335 32) (_ bv334 32)) (ite $x5591 (ite $x6610 (_ bv305 32) (_ bv304 32)) ?x1038))))
 (let ((?x4104 (bvadd (bvmul (_ bv365 32) (bvsub ?x1298 (_ bv1 32))) (bvsdiv (bvsub ?x1298 (_ bv1 32)) (_ bv4 32)))))
 (let ((?x1899 (bvadd (bvsub ?x4104 (bvsdiv (bvsub ?x1298 (_ bv1 32)) (_ bv100 32))) (bvsdiv (bvsub ?x1298 (_ bv1 32)) (_ bv400 32)))))
 (let ((?x4615 (bvadd (bvadd (bvsub (bvadd (bvadd ?x1899 ?x453) (bvsub ?x1856 (_ bv1 32))) (_ bv730179 32)) (_ bv0 32)) (_ bv730179 32))))
 (let ((?x2124 (bvsmod ?x4615 (_ bv146097 32))))
 (let ((?x2424 (bvsdiv ?x2124 (_ bv36524 32))))
 (let ((?x975 (ite (bvsle (_ bv4 32) ?x2424) (_ bv3 32) ?x2424)))
 (let ((?x619 (bvsub ?x2124 (bvmul ?x975 (_ bv36524 32)))))
 (let ((?x2268 (bvsmod ?x619 (_ bv1461 32))))
 (let ((?x956 (bvsdiv ?x2268 (_ bv365 32))))
 (let ((?x1317 (ite (bvsle (_ bv4 32) ?x956) (_ bv3 32) ?x956)))
 (let ((?x6044 (bvadd (bvadd (bvmul (bvsdiv ?x4615 (_ bv146097 32)) (_ bv400 32)) (bvmul ?x975 (_ bv100 32))) (bvmul (bvsdiv ?x619 (_ bv1461 32)) (_ bv4 32)))))
 (let ((?x4202 (bvadd (bvadd ?x6044 ?x1317) (_ bv1 32))))
 (let (($x3554 (or (and (= (_ bv0 32) (bvsmod ?x4202 (_ bv4 32))) (and (distinct (_ bv0 32) (bvsmod ?x4202 (_ bv100 32))) true)) (= (_ bv0 32) (bvsmod ?x4202 (_ bv400 32))))))
 (let ((?x4396 (bvsub ?x2268 (bvmul ?x1317 (_ bv365 32)))))
 (let ((?x1645 (ite $x3554 (_ bv31 32) (_ bv31 32))))
 (let (($x1552 (bvsge ?x4396 ?x1645)))
 (let ((?x4050 (ite $x1552 (bvadd (bvsub ?x4396 ?x1645) (_ bv1 32)) (bvadd (bvsub ?x4396 (ite $x3554 (_ bv0 32) (_ bv0 32))) (_ bv1 32)))))
 (let ((?x552 (ite $x3554 (_ bv60 32) (_ bv59 32))))
 (let (($x522 (bvsge ?x4396 ?x552)))
 (let ((?x4110 (ite $x3554 (_ bv91 32) (_ bv90 32))))
 (let (($x603 (bvsge ?x4396 ?x4110)))
 (let ((?x511 (ite $x603 (bvadd (bvsub ?x4396 ?x4110) (_ bv1 32)) (ite $x522 (bvadd (bvsub ?x4396 ?x552) (_ bv1 32)) ?x4050))))
 (let ((?x25777 (ite $x3554 (_ bv121 32) (_ bv120 32))))
 (let (($x4499 (bvsge ?x4396 ?x25777)))
 (let ((?x2619 (ite $x3554 (_ bv152 32) (_ bv151 32))))
 (let (($x2687 (bvsge ?x4396 ?x2619)))
 (let ((?x4133 (ite $x2687 (bvadd (bvsub ?x4396 ?x2619) (_ bv1 32)) (ite $x4499 (bvadd (bvsub ?x4396 ?x25777) (_ bv1 32)) ?x511))))
 (let ((?x3783 (ite $x3554 (_ bv182 32) (_ bv181 32))))
 (let (($x2878 (bvsge ?x4396 ?x3783)))
 (let ((?x4992 (ite $x3554 (_ bv213 32) (_ bv212 32))))
 (let (($x2080 (bvsge ?x4396 ?x4992)))
 (let ((?x1293 (ite $x2080 (bvadd (bvsub ?x4396 ?x4992) (_ bv1 32)) (ite $x2878 (bvadd (bvsub ?x4396 ?x3783) (_ bv1 32)) ?x4133))))
 (let ((?x1654 (ite $x3554 (_ bv244 32) (_ bv243 32))))
 (let (($x1172 (bvsge ?x4396 ?x1654)))
 (let ((?x4531 (ite $x3554 (_ bv274 32) (_ bv273 32))))
 (let (($x4502 (bvsge ?x4396 ?x4531)))
 (let ((?x4289 (ite $x4502 (bvadd (bvsub ?x4396 ?x4531) (_ bv1 32)) (ite $x1172 (bvadd (bvsub ?x4396 ?x1654) (_ bv1 32)) ?x1293))))
 (let ((?x52345 (ite $x3554 (_ bv305 32) (_ bv304 32))))
 (let (($x5257 (bvsge ?x4396 ?x52345)))
 (let ((?x1045 (ite $x3554 (_ bv335 32) (_ bv334 32))))
 (let (($x2863 (bvsge ?x4396 ?x1045)))
 (let ((?x3163 (ite $x2863 (bvadd (bvsub ?x4396 ?x1045) (_ bv1 32)) (ite $x5257 (bvadd (bvsub ?x4396 ?x52345) (_ bv1 32)) ?x4289))))
 (let (($x4290 (= (_ bv0 32) (_ bv0 32))))
 (let ((?x1337 (ite $x4290 ?x1856 ?x3163)))
 (let ((?x6163 (ite $x2687 (_ bv6 32) (ite $x4499 (_ bv5 32) (ite $x603 (_ bv4 32) (ite $x522 (_ bv3 32) (ite $x1552 (_ bv2 32) (_ bv1 32))))))))
 (let ((?x25839 (ite $x5257 (_ bv11 32) (ite $x4502 (_ bv10 32) (ite $x1172 (_ bv9 32) (ite $x2080 (_ bv8 32) (ite $x2878 (_ bv7 32) ?x6163)))))))
 (let ((?x3944 (bvadd (ite $x4290 ?x3990 (ite $x2863 (_ bv12 32) ?x25839)) (bvadd (bvmul (_ bv0 32) (_ bv12 32)) (_ bv0 32)))))
 (let ((?x2457 (bvsub (ite (bvuge ?x3944 (_ bv2147483648 32)) (bvsub ?x3944 (_ bv0 32)) ?x3944) (_ bv1 32))))
 (let ((?x3012 (bvsmod ?x2457 (_ bv12 32))))
 (let ((?x4533 (bvadd ?x3012 (_ bv1 32))))
 (let (($x1252 (= (_ bv11 32) ?x4533)))
 (let (($x2288 (= (_ bv9 32) ?x4533)))
 (let (($x4118 (= (_ bv6 32) ?x4533)))
 (let (($x2466 (= (_ bv4 32) ?x4533)))
 (let ((?x3779 (bvsdiv ?x2457 (_ bv12 32))))
 (let ((?x4212 (ite (and (bvuge ?x2457 (_ bv2147483648 32)) (and (distinct (_ bv0 32) ?x3012) true)) (bvsub ?x3779 (_ bv1 32)) ?x3779)))
 (let ((?x4347 (bvadd (ite $x4290 ?x1298 ?x4202) ?x4212)))
 (let (($x3187 (or (and (= (_ bv0 32) (bvsmod ?x4347 (_ bv4 32))) (and (distinct (_ bv0 32) (bvsmod ?x4347 (_ bv100 32))) true)) (= (_ bv0 32) (bvsmod ?x4347 (_ bv400 32))))))
 (let (($x405 (= (_ bv2 32) ?x4533)))
 (let ((?x25766 (ite $x405 (ite $x3187 (_ bv29 32) (_ bv28 32)) (ite (or $x2466 $x4118 $x2288 $x1252) (_ bv30 32) (_ bv31 32)))))
 (let ((?x4443 (ite (bvsgt (_ bv1 32) ?x1337) (_ bv1 32) (ite (bvsgt ?x1337 ?x25766) ?x25766 ?x1337))))
 (let ((?x5800 (ite (bvsgt (_ bv1 32) ?x4443) (_ bv1 32) (ite (bvsgt ?x4443 ?x25766) ?x25766 ?x4443))))
 (let ((?x1231 (ite $x405 (ite $x3187 (_ bv31 32) (_ bv31 32)) (ite (= (_ bv1 32) ?x4533) (ite $x3187 (_ bv0 32) (_ bv0 32)) (_ bv0 32)))))
 (let ((?x5671 (ite $x2466 (ite $x3187 (_ bv91 32) (_ bv90 32)) (ite (= (_ bv3 32) ?x4533) (ite $x3187 (_ bv60 32) (_ bv59 32)) ?x1231))))
 (let ((?x2626 (ite $x4118 (ite $x3187 (_ bv152 32) (_ bv151 32)) (ite (= (_ bv5 32) ?x4533) (ite $x3187 (_ bv121 32) (_ bv120 32)) ?x5671))))
 (let ((?x4799 (ite (= (_ bv8 32) ?x4533) (ite $x3187 (_ bv213 32) (_ bv212 32)) (ite (= (_ bv7 32) ?x4533) (ite $x3187 (_ bv182 32) (_ bv181 32)) ?x2626))))
 (let ((?x2945 (ite (= (_ bv10 32) ?x4533) (ite $x3187 (_ bv274 32) (_ bv273 32)) (ite $x2288 (ite $x3187 (_ bv244 32) (_ bv243 32)) ?x4799))))
 (let ((?x3292 (ite (= (_ bv12 32) ?x4533) (ite $x3187 (_ bv335 32) (_ bv334 32)) (ite $x1252 (ite $x3187 (_ bv305 32) (_ bv304 32)) ?x2945))))
 (let ((?x4379 (bvadd (bvmul (_ bv365 32) (bvsub ?x4347 (_ bv1 32))) (bvsdiv (bvsub ?x4347 (_ bv1 32)) (_ bv4 32)))))
 (let ((?x6819 (bvadd (bvsub ?x4379 (bvsdiv (bvsub ?x4347 (_ bv1 32)) (_ bv100 32))) (bvsdiv (bvsub ?x4347 (_ bv1 32)) (_ bv400 32)))))
 (let ((?x1820 (bvadd (bvadd (bvsub (bvadd (bvadd ?x6819 ?x3292) (bvsub ?x5800 (_ bv1 32))) (_ bv730179 32)) (_ bv15 32)) (_ bv730179 32))))
 (let ((?x2991 (bvsmod ?x1820 (_ bv146097 32))))
 (let ((?x6596 (bvsdiv ?x2991 (_ bv36524 32))))
 (let ((?x3244 (ite (bvsle (_ bv4 32) ?x6596) (_ bv3 32) ?x6596)))
 (let ((?x2372 (bvsub ?x2991 (bvmul ?x3244 (_ bv36524 32)))))
 (let ((?x1546 (bvsmod ?x2372 (_ bv1461 32))))
 (let ((?x39182 (bvsdiv ?x1546 (_ bv365 32))))
 (let ((?x3695 (ite (bvsle (_ bv4 32) ?x39182) (_ bv3 32) ?x39182)))
 (let ((?x3937 (bvadd (bvadd (bvmul (bvsdiv ?x1820 (_ bv146097 32)) (_ bv400 32)) (bvmul ?x3244 (_ bv100 32))) (bvmul (bvsdiv ?x2372 (_ bv1461 32)) (_ bv4 32)))))
 (let ((?x4467 (bvadd (bvadd ?x3937 ?x3695) (_ bv1 32))))
 (let (($x38922 (or (and (= (_ bv0 32) (bvsmod ?x4467 (_ bv4 32))) (and (distinct (_ bv0 32) (bvsmod ?x4467 (_ bv100 32))) true)) (= (_ bv0 32) (bvsmod ?x4467 (_ bv400 32))))))
 (let ((?x4033 (bvsub ?x1546 (bvmul ?x3695 (_ bv365 32)))))
 (let ((?x21173 (ite $x38922 (_ bv31 32) (_ bv31 32))))
 (let (($x34386 (bvsge ?x4033 ?x21173)))
 (let ((?x39517 (ite $x34386 (bvadd (bvsub ?x4033 ?x21173) (_ bv1 32)) (bvadd (bvsub ?x4033 (ite $x38922 (_ bv0 32) (_ bv0 32))) (_ bv1 32)))))
 (let ((?x39283 (ite $x38922 (_ bv60 32) (_ bv59 32))))
 (let (($x20621 (bvsge ?x4033 ?x39283)))
 (let ((?x40155 (ite $x38922 (_ bv91 32) (_ bv90 32))))
 (let (($x33122 (bvsge ?x4033 ?x40155)))
 (let ((?x30003 (ite $x33122 (bvadd (bvsub ?x4033 ?x40155) (_ bv1 32)) (ite $x20621 (bvadd (bvsub ?x4033 ?x39283) (_ bv1 32)) ?x39517))))
 (let ((?x39554 (ite $x38922 (_ bv121 32) (_ bv120 32))))
 (let (($x31719 (bvsge ?x4033 ?x39554)))
 (let ((?x38932 (ite $x38922 (_ bv152 32) (_ bv151 32))))
 (let (($x21305 (bvsge ?x4033 ?x38932)))
 (let ((?x22065 (ite $x21305 (bvadd (bvsub ?x4033 ?x38932) (_ bv1 32)) (ite $x31719 (bvadd (bvsub ?x4033 ?x39554) (_ bv1 32)) ?x30003))))
 (let ((?x22071 (ite $x38922 (_ bv182 32) (_ bv181 32))))
 (let (($x2122 (bvsge ?x4033 ?x22071)))
 (let ((?x26928 (ite $x38922 (_ bv213 32) (_ bv212 32))))
 (let (($x2832 (bvsge ?x4033 ?x26928)))
 (let ((?x28343 (ite $x2832 (bvadd (bvsub ?x4033 ?x26928) (_ bv1 32)) (ite $x2122 (bvadd (bvsub ?x4033 ?x22071) (_ bv1 32)) ?x22065))))
 (let ((?x34952 (ite $x38922 (_ bv244 32) (_ bv243 32))))
 (let (($x2382 (bvsge ?x4033 ?x34952)))
 (let ((?x20595 (ite $x38922 (_ bv274 32) (_ bv273 32))))
 (let (($x38850 (bvsge ?x4033 ?x20595)))
 (let ((?x6777 (ite $x38850 (bvadd (bvsub ?x4033 ?x20595) (_ bv1 32)) (ite $x2382 (bvadd (bvsub ?x4033 ?x34952) (_ bv1 32)) ?x28343))))
 (let ((?x28621 (ite $x38922 (_ bv305 32) (_ bv304 32))))
 (let (($x41314 (bvsge ?x4033 ?x28621)))
 (let ((?x28792 (ite $x38922 (_ bv335 32) (_ bv334 32))))
 (let (($x40301 (bvsge ?x4033 ?x28792)))
 (let ((?x6699 (ite $x40301 (bvadd (bvsub ?x4033 ?x28792) (_ bv1 32)) (ite $x41314 (bvadd (bvsub ?x4033 ?x28621) (_ bv1 32)) ?x6777))))
 (let (($x3782 (= (_ bv0 32) (_ bv15 32))))
 (let ((?x1735 (ite $x21305 (_ bv6 32) (ite $x31719 (_ bv5 32) (ite $x33122 (_ bv4 32) (ite $x20621 (_ bv3 32) (ite $x34386 (_ bv2 32) (_ bv1 32))))))))
 (let ((?x39610 (ite $x41314 (_ bv11 32) (ite $x38850 (_ bv10 32) (ite $x2382 (_ bv9 32) (ite $x2832 (_ bv8 32) (ite $x2122 (_ bv7 32) ?x1735)))))))
 (let ((?x22062 (ite $x40301 (_ bv12 32) ?x39610)))
 (and (= (ite $x3782 ?x4347 ?x4467) y_year) (= (ite $x3782 ?x4533 ?x22062) y_month) (= (ite $x3782 ?x5800 ?x6699) y_day)))))))))))))))))))))))))))))))))))))))))))))))))))))))))))))))))))))))))))))))))))))))))))))))))))))))))))))))))))))))))))))))))))))))))))
(assert
 (let (($x32390 (or (bvslt (_ bv6 32) y_month) (and (= (_ bv6 32) y_month) (bvsle (_ bv1 32) y_day)))))
(or (bvslt (_ bv2023 32) y_year) (and (= (_ bv2023 32) y_year) $x32390))))
(check-sat)
